<?xml version = "1.0" encoding="UTF-8" standalone="yes"?>
<CPLEXSolution version="1.2">
 <header
   problemName=""
   objectiveValue="5.360294117647058"
   solutionTypeValue="1"
   solutionTypeString="basic"
   solutionStatusValue="1"
   solutionStatusString="optimal"
   solutionMethodString="dual"
   primalFeasible="1"
   dualFeasible="1"
   simplexIterations="18"
   writeLevel="1"/>
 <quality
   epRHS="9.9999999999999995e-07"
   epOpt="9.9999999999999995e-07"
   maxPrimalInfeas="0"
   maxDualInfeas="1.4481169886415085e-17"
   maxPrimalResidual="4.4519943287468777e-14"
   maxDualResidual="1.8220017508618902e-16"
   maxX="1.8759590792838874"
   maxPi="0.29411764705882348"
   maxSlack="73.833759590792852"
   maxRedCost="0.35294117647058798"
   kappa="105.83408768357774"/>
 <linearConstraints>
  <constraint name="R0" index="0" status="BS" slack="-2.3612531969309458" dual="-0"/>
  <constraint name="R3" index="1" status="LL" slack="0" dual="0.066176470588235406"/>
  <constraint name="R4" index="2" status="BS" slack="-3.6048593350383626" dual="-0"/>
  <constraint name="R5" index="3" status="LL" slack="0" dual="0.088235294117647065"/>
  <constraint name="R30" index="4" status="LL" slack="0" dual="0.12499999999999989"/>
  <constraint name="R31" index="5" status="LL" slack="0" dual="0.066176470588235295"/>
  <constraint name="R35" index="6" status="LL" slack="0" dual="0.058823529411764837"/>
  <constraint name="R39" index="7" status="BS" slack="-2.6368286445012803" dual="-0"/>
  <constraint name="C297" index="8" status="BS" slack="-7.2426470588235272" dual="-0"/>
  <constraint name="C298" index="9" status="BS" slack="-5.8823529411764719" dual="-0"/>
  <constraint name="C299" index="10" status="BS" slack="-4.5220588235294095" dual="-0"/>
  <constraint name="C300" index="11" status="BS" slack="-4.1617647058823515" dual="-0"/>
  <constraint name="C301" index="12" status="BS" slack="-3.1617647058823515" dual="-0"/>
  <constraint name="C302" index="13" status="BS" slack="-2.4411764705882359" dual="-0"/>
  <constraint name="C303" index="14" status="BS" slack="-2.8014705882352953" dual="-0"/>
  <constraint name="C304" index="15" status="BS" slack="-0.36029411764705899" dual="-0"/>
  <constraint name="C305" index="16" status="BS" slack="-1.4747442455242967" dual="-0"/>
  <constraint name="C306" index="17" status="BS" slack="-58.363171355498707" dual="-0"/>
  <constraint name="C313" index="18" status="BS" slack="-30.455242966751911" dual="-0"/>
  <constraint name="C316" index="19" status="BS" slack="-73.833759590792852" dual="-0"/>
  <constraint name="C325" index="20" status="BS" slack="-31.965473145780084" dual="-0"/>
  <constraint name="C406" index="21" status="BS" slack="-1.2132352941176432" dual="-0"/>
  <constraint name="C410" index="22" status="BS" slack="-4.6013427109974483" dual="-0"/>
  <constraint name="C416" index="23" status="LL" slack="0" dual="0.29411764705882348"/>
  <constraint name="C418" index="24" status="BS" slack="-7.0978260869565242" dual="-0"/>
  <constraint name="C431" index="25" status="BS" slack="-9.8081841432225101" dual="-0"/>
  <constraint name="C436" index="26" status="BS" slack="-52.859015345268546" dual="-0"/>
  <constraint name="C445" index="27" status="BS" slack="-16.732736572890051" dual="-0"/>
  <constraint name="C458" index="28" status="BS" slack="-7.0799232736572932" dual="-0"/>
  <constraint name="C531" index="29" status="LL" slack="0" dual="-1.4481169886415085e-17"/>
  <constraint name="C538" index="30" status="BS" slack="-2.2397698209718691" dual="-0"/>
  <constraint name="C539" index="31" status="BS" slack="-0.31010230179028309" dual="-0"/>
  <constraint name="C545" index="32" status="LL" slack="0" dual="0.088235294117647176"/>
  <constraint name="C556" index="33" status="BS" slack="-1.6125319693094637" dual="-0"/>
 </linearConstraints>
 <variables>
  <variable name="x0" index="0" status="LL" value="0" reducedCost="0.35294117647058798"/>
  <variable name="x1" index="1" status="LL" value="0" reducedCost="0.32352941176470607"/>
  <variable name="x2" index="2" status="LL" value="0" reducedCost="0.26470588235294124"/>
  <variable name="x6" index="3" status="BS" value="0.48849104859335046" reducedCost="0"/>
  <variable name="x7" index="4" status="LL" value="0" reducedCost="0.088235294117646898"/>
  <variable name="x11" index="5" status="BS" value="1.8759590792838874" reducedCost="0"/>
  <variable name="x15" index="6" status="LL" value="0" reducedCost="0.088235294117647259"/>
  <variable name="x36" index="7" status="LL" value="0" reducedCost="0.058823529411764677"/>
  <variable name="x40" index="8" status="BS" value="0.77301790281329896" reducedCost="0"/>
  <variable name="x46" index="9" status="LL" value="0" reducedCost="0.14705882352941169"/>
  <variable name="x52" index="10" status="BS" value="0.49488491048593364" reducedCost="0"/>
  <variable name="x111" index="11" status="BS" value="0.51150895140664954" reducedCost="0"/>
  <variable name="x117" index="12" status="BS" value="0.47698209718670093" reducedCost="0"/>
  <variable name="x121" index="13" status="LL" value="0" reducedCost="0.088235294117646995"/>
  <variable name="x125" index="14" status="BS" value="0.46419437340153458" reducedCost="0"/>
  <variable name="x246" index="15" status="LL" value="0" reducedCost="0.11764705882352956"/>
  <variable name="x250" index="16" status="LL" value="0" reducedCost="0.26470588235294179"/>
  <variable name="x251" index="17" status="BS" value="0.27525575447570338" reducedCost="0"/>
 </variables>
 <objectiveValues>
  <objective index="0" name="" value="5.3602941176470589"/>
 </objectiveValues>
</CPLEXSolution>
